3 5 7 
3 2 1 5 1 118 2 128 4 120 6 127 7 128 2 7 1 123 2 113 3 136 4 122 5 135 6 131 7 116 2 4 6 2 145 3 136 4 143 5 148 6 148 7 145 2 2 1 127 7 133 2 4 2 2 146 7 150 5 7 1 146 2 149 3 163 4 171 5 163 6 163 7 164 
3 2 1 6 1 198 2 195 4 203 5 200 6 223 7 232 3 1 5 162 2 3 2 1 53 6 55 2 7 1 71 2 65 3 66 4 65 5 71 6 67 7 62 2 5 6 1 71 2 84 3 84 4 84 6 79 7 77 3 1 2 67 
3 2 1 4 1 79 3 91 6 91 7 83 2 3 3 60 4 57 6 63 2 4 3 1 75 2 73 7 77 3 7 1 80 2 82 3 73 4 73 5 77 6 88 7 82 2 4 1 3 185 5 5 2 96 3 100 4 107 5 105 7 108 
